networks/zoo_44_185/zoo_44_185-lower.txt
Number of groups: 21
Flow 4: {8 5 0} {5 27 0} 
Flow 9: {18 19 0} {19 22 0} {22 11 0} {11 33 0} 
Flow 10: {4 2 0} {2 10 0} {10 14 0} 
Flow 13: {1 16 0} {16 17 0} {17 20 0} {20 42 0} 
Flow 16: {3 4 0} {4 1 0} {1 23 0} 
Flow 17: {3 2 0} {2 24 0} 
Flow 23: {6 9 0} {9 31 0} 
Flow 29: {3 10 0} {10 20 0} {20 19 0} {19 41 0} 
Flow 32: {3 13 0} {13 14 0} {14 21 0} {21 22 0} {22 44 0} 
Flow 84: {20 21 0} {21 43 0} 
Flow 86: {9 6 0} {6 5 0} {5 8 0} {8 7 0} {7 4 0} {4 3 0} {3 25 0} 
Flow 95: {5 6 0} {6 28 0} 
Flow 110: {14 10 0} {10 32 0} 
Flow 121: {7 29 0} 
Flow 122: {17 16 0} {16 1 0} {1 4 0} {4 7 0} {7 8 0} {8 30 0} 
Flow 138: {19 18 0} {18 17 0} {17 39 0} 
Flow 146: {10 2 0} {2 4 0} {4 26 0} 
Flow 169: {22 12 0} {12 34 0} 
Flow 172: {21 20 0} {20 17 0} {17 18 0} {18 40 0} 
Flow 178: {22 19 0} {19 20 0} {20 10 0} {10 3 0} 
Flow 182: {22 21 0} {21 14 0} {14 36 0} 
Time taken running everything: 0 seconds
