networks/zoo_44_185/zoo_44_185-lower.sol
<?xml version = "1.0" encoding="UTF-8" standalone="yes"?>
<CPLEXSolution version="1.2">
 <header
   problemName="networks/zoo_44_185/zoo_44_185-lower.lp"
   solutionName="incumbent"
   solutionIndex="-1"
   objectiveValue="19"
   solutionTypeValue="3"
   solutionTypeString="primal"
   solutionStatusValue="101"
   solutionStatusString="integer optimal solution"
   solutionMethodString="mip"
   primalFeasible="1"
   dualFeasible="1"
   MIPNodes="0"
   MIPIterations="0"
   writeLevel="3"/>
 <quality
   epInt="1.0000000000000001e-05"
   epRHS="9.9999999999999995e-07"
   maxIntInfeas="0"
   maxPrimalInfeas="0"
   maxX="1"
   maxSlack="1"/>
 <variables>
  <variable name="Y(1,2)" index="1" value="1"/>
  <variable name="Y(2,3)" index="42" value="1"/>
  <variable name="Y(3,4)" index="83" value="1"/>
  <variable name="Y(4,5)" index="124" value="1"/>
  <variable name="Y(5,6)" index="165" value="1"/>
  <variable name="Y(6,7)" index="206" value="1"/>
  <variable name="Y(7,8)" index="247" value="1"/>
  <variable name="Y(8,10)" index="289" value="1"/>
  <variable name="Y(9,11)" index="330" value="1"/>
  <variable name="Y(10,14)" index="373" value="1"/>
  <variable name="Y(11,17)" index="415" value="1"/>
  <variable name="Y(12,18)" index="456" value="1"/>
  <variable name="Y(13,20)" index="498" value="1"/>
  <variable name="Y(14,21)" index="539" value="1"/>
  <variable name="Y(15,22)" index="580" value="1"/>
  <variable name="Y(16,1)" index="600" value="1"/>
  <variable name="Y(23,9)" index="888" value="1"/>
  <variable name="Y(29,19)" index="1137" value="1"/>
  <variable name="Y(169,12)" index="6731" value="1"/>
  <variable name="X(1,4,1)" index="7400" value="1"/>
  <variable name="X(1,16,9)" index="7593" value="1"/>
  <variable name="X(1,23,16)" index="7785" value="1"/>
  <variable name="X(2,4,90)" index="8044" value="1"/>
  <variable name="X(2,10,8)" index="8147" value="1"/>
  <variable name="X(2,24,1)" index="8325" value="1"/>
  <variable name="X(3,2,17)" index="8526" value="1"/>
  <variable name="X(3,4,16)" index="8710" value="1"/>
  <variable name="X(3,10,24)" index="8903" value="1"/>
  <variable name="X(3,13,25)" index="9089" value="1"/>
  <variable name="X(3,25,2)" index="9251" value="1"/>
  <variable name="X(4,1,16)" index="9450" value="1"/>
  <variable name="X(4,2,1)" index="9620" value="1"/>
  <variable name="X(4,3,2)" index="9806" value="1"/>
  <variable name="X(4,7,4)" index="9993" value="1"/>
  <variable name="X(4,26,3)" index="10177" value="1"/>
  <variable name="X(5,6,5)" index="10364" value="1"/>
  <variable name="X(5,8,48)" index="10592" value="1"/>
  <variable name="X(5,27,4)" index="10733" value="1"/>
  <variable name="X(6,5,85)" index="10999" value="1"/>
  <variable name="X(6,9,23)" index="11122" value="1"/>
  <variable name="X(6,28,5)" index="11289" value="1"/>
  <variable name="X(7,4,48)" index="11517" value="1"/>
  <variable name="X(7,8,4)" index="11658" value="1"/>
  <variable name="X(7,29,6)" index="11845" value="1"/>
  <variable name="X(8,5,4)" index="12028" value="1"/>
  <variable name="X(8,7,48)" index="12257" value="1"/>
  <variable name="X(8,30,7)" index="12401" value="1"/>
  <variable name="X(9,6,85)" index="12664" value="1"/>
  <variable name="X(9,31,23)" index="12787" value="1"/>
  <variable name="X(10,2,90)" index="13039" value="1"/>
  <variable name="X(10,3,92)" index="13226" value="1"/>
  <variable name="X(10,14,10)" index="13329" value="1"/>
  <variable name="X(10,20,27)" index="13531" value="1"/>
  <variable name="X(10,32,8)" index="13697" value="1"/>
  <variable name="X(11,33,9)" index="13883" value="1"/>
  <variable name="X(12,34,169)" index="14228" value="1"/>
  <variable name="X(13,14,25)" index="14269" value="1"/>
  <variable name="X(14,10,105)" index="14534" value="1"/>
  <variable name="X(14,21,25)" index="14639" value="1"/>
  <variable name="X(14,36,10)" index="14809" value="1"/>
  <variable name="X(16,1,115)" index="15099" value="1"/>
  <variable name="X(16,17,9)" index="15178" value="1"/>
  <variable name="X(17,16,118)" index="15472" value="1"/>
  <variable name="X(17,18,9)" index="15548" value="1"/>
  <variable name="X(17,20,13)" index="15737" value="1"/>
  <variable name="X(17,39,11)" index="15920" value="1"/>
  <variable name="X(18,17,127)" index="16221" value="1"/>
  <variable name="X(18,19,9)" index="16288" value="1"/>
  <variable name="X(18,40,12)" index="16476" value="1"/>
  <variable name="X(19,18,127)" index="16776" value="1"/>
  <variable name="X(19,20,128)" index="16962" value="1"/>
  <variable name="X(19,22,9)" index="17028" value="1"/>
  <variable name="X(19,41,29)" index="17233" value="1"/>
  <variable name="X(20,10,119)" index="17508" value="1"/>
  <variable name="X(20,17,27)" index="17601" value="1"/>
  <variable name="X(20,19,29)" index="17788" value="1"/>
  <variable name="X(20,21,14)" index="17958" value="1"/>
  <variable name="X(20,42,13)" index="18142" value="1"/>
  <variable name="X(21,14,159)" index="18473" value="1"/>
  <variable name="X(21,20,158)" index="18657" value="1"/>
  <variable name="X(21,22,25)" index="18709" value="1"/>
  <variable name="X(21,43,14)" index="18883" value="1"/>
  <variable name="X(22,11,9)" index="19063" value="1"/>
  <variable name="X(22,12,169)" index="19408" value="1"/>
  <variable name="X(22,19,176)" index="19600" value="1"/>
  <variable name="X(22,21,182)" index="19791" value="1"/>
  <variable name="X(22,44,15)" index="19809" value="1"/>
 </variables>
</CPLEXSolution>
